<number of tasks>
58

<cycle time>
104

<task times>
1 10
2 53
3 41
4 36
5 35
6 17
7 34
8 23
9 14
10 52
11 33
12 34
13 12
14 52
15 12
16 33
17 44
18 7
19 15
20 13
21 29
22 37
23 43
24 23
25 24
26 9
27 16
28 12
29 26
30 22
31 51
32 47
33 34
34 23
35 12
36 52
37 12
38 33
39 44
40 7
41 15
42 13
43 29
44 37
45 43
46 23
47 24
48 9
49 16
50 12
51 26
52 12
53 52
54 12
55 33
56 44
57 7
58 15

<task process alternatives>
1: 8,15 ; 12,8
2: 43,15 ; 64,8
3: 33,15 ; 50,8
4: 29,15 ; 44,8
5: 28,15 ; 42,8
6: 14,15 ; 21,8
7: 28,15 ; 41,8
8: 19,15 ; 28,8
9: 12,15 ; 17,8
10: 42,15 ; 63,8
11: 27,15 ; 40,8
12: 28,15 ; 41,8
13: 10,15 ; 15,8
14: 42,15 ; 63,8
15: 10,15 ; 15,8
16: 27,15 ; 40,8
17: 36,15 ; 53,8
18: 6,15 ; 9,8
19: 12,15 ; 18,8
20: 11,15 ; 16,8
21: 24,15 ; 35,8
22: 30,15 ; 45,8
23: 35,15 ; 52,8
24: 19,15 ; 28,8
25: 20,15 ; 29,8
26: 8,15 ; 11,8
27: 13,15 ; 20,8
28: 10,15 ; 15,8
29: 21,15 ; 32,8
30: 18,15 ; 27,8
31: 41,15 ; 62,8
32: 38,15 ; 57,8
33: 28,15 ; 41,8
34: 19,15 ; 28,8
35: 10,15 ; 15,8
36: 42,15 ; 63,8
37: 10,15 ; 15,8
38: 27,15 ; 40,8
39: 36,15 ; 53,8
40: 6,15 ; 9,8
41: 12,15 ; 18,8
42: 11,15 ; 16,8
43: 24,15 ; 35,8
44: 30,15 ; 45,8
45: 35,15 ; 52,8
46: 19,15 ; 28,8
47: 20,15 ; 29,8
48: 8,15 ; 11,8
49: 13,15 ; 20,8
50: 10,15 ; 15,8
51: 21,15 ; 32,8
52: 10,15 ; 15,8
53: 42,15 ; 63,8
54: 10,15 ; 15,8
55: 27,15 ; 40,8
56: 36,15 ; 53,8
57: 6,15 ; 9,8
58: 12,15 ; 18,8

<incompatible tasks>
3,4
4,36
3,8
6,24
23,52
3,56
52,24
29,20

<precedence relations>
55,57
25,38
44,45
6,24
50,58
3,22
23,31
9,11
11,14
1,9
36,37
28,33
45,49
37,39
45,46
13,17
54,55
15,17
33,35
41,42
18,19
6,23
26,29
32,45
20,25
43,45
51,52
29,31
46,47
3,21
46,50
7,43
38,52
40,43
17,20
34,36
19,23
27,30
11,13
49,58
28,32
5,36
37,41
45,48
47,51
56,57
8,44
16,18
2,25
24,31
42,43
20,21
4,10
12,17
21,26
35,43
22,27
52,53
14,17
57,58
31,36
39,43
48,55
21,44
11,15
37,40
36,38
53,54
54,56
30,34

<number of task attributes>
1

<task attribute values>
1,1:70
2,1:22
4,1:69
5,1:91
6,1:81
7,1:7
8,1:80
9,1:14
10,1:28
11,1:75
12,1:4
13,1:75
14,1:2
15,1:19
16,1:8
17,1:83
18,1:3
19,1:9
20,1:35
21,1:3
22,1:4
23,1:2
24,1:12
25,1:79
26,1:3
27,1:6
28,1:11
29,1:4
30,1:48
31,1:77
32,1:4
33,1:1
34,1:7
35,1:94
36,1:14
37,1:1
38,1:37
39,1:10
40,1:4
42,1:1
44,1:8
47,1:12
48,1:29
50,1:13
51,1:3
52,1:20
53,1:70
54,1:4
55,1:14
56,1:37
57,1:44
58,1:2

<attribute bounds per station>
1:100

<linked tasks>
1,16
6,12
8,44
10,49
14,18
21,30
29,33
40,45
42,43
42,45
43,45
47,48
47,50

<optimal SALBP-1 value>
15

<rand seed>
236278236

<end>
